(set-option :print-success false)
(set-logic QF_UF)
(declare-sort x154 0)
(declare-sort x4 0)
(declare-fun x122 () x4)
(declare-fun x8 () x4)
(declare-fun x84 () x4)
(declare-fun x22 (x4 x4) x4)
(declare-fun x148 () x4)
(declare-fun x90 () x4)
(declare-fun x55 (x4 x4) x4)
(assert (let ((x52 (x22 x148 x84)) (x109 (x22 x122 x8)) (x45 (x22 x90 x148)) (x42 (x22 x8 x122)) (x99 (x22 x90 x8)) (x3 (x22 x8 x90)) (x36 (x22 x122 x122)) (x61 (x22 x148 x8)) (x111 (x22 x122 x90)) (x50 (x22 x90 x90)) (x38 (x22 x8 x8)) (x18 (x22 x90 x122)) (x123 (x22 x90 x84)) (x118 (x22 x148 x148)) (x131 (x22 x84 x8)) (x87 (x22 x122 x148)) (x68 (x22 x148 x90)) (x35 (x22 x8 x148)) (x6 (x22 x84 x90)) (x120 (x22 x84 x148)) (x77 (x22 x84 x122)) (x124 (x22 x122 x84)) (x67 (x22 x84 x84)) (x62 (x22 x8 x84)) (x89 (x22 x148 x122))) (or (or (or (and (or (not (= (x22 x84 x77) x122)) (not (= x77 x124))) (and (and (or (not (= (x22 x122 x36) x122)) (not (= x36 x36))) (and (or (not (= (x22 x148 x89) x122)) (not (= x89 x87))) (or (not (= (x22 x8 x42) x122)) (not (= x42 x109))))) (or (not (= (x22 x90 x18) x122)) (not (= x18 x111))))) (or (and (and (or (not (= x3 x99)) (not (= (x22 x90 x99) x8))) (and (or (not (= x42 x109)) (not (= (x22 x122 x109) x8))) (and (or (not (= x8 (x22 x148 x61))) (not (= x35 x61))) (or (not (= (x22 x8 x38) x8)) (not (= x38 x38)))))) (or (not (= x62 x131)) (not (= x8 (x22 x84 x131))))) (and (and (or (not (= x148 (x22 x90 x45))) (not (= x45 x68))) (and (and (or (not (= x148 (x22 x8 x35))) (not (= x35 x61))) (or (not (= x118 x118)) (not (= (x22 x148 x118) x148)))) (or (not (= x148 (x22 x122 x87))) (not (= x89 x87))))) (or (not (= x120 x52)) (not (= x148 (x22 x84 x120))))))) (and (and (and (or (not (= x18 x111)) (not (= (x22 x122 x111) x90))) (and (or (not (= x3 x99)) (not (= (x22 x8 x3) x90))) (or (not (= x45 x68)) (not (= (x22 x148 x68) x90))))) (or (not (= x50 x50)) (not (= x90 (x22 x90 x50))))) (or (not (= x90 (x22 x84 x6))) (not (= x6 x123))))) (and (and (and (or (not (= x84 (x22 x122 x124))) (not (= x77 x124))) (and (or (not (= (x22 x148 x52) x84)) (not (= x52 x120))) (or (not (= x62 x131)) (not (= (x22 x8 x62) x84))))) (or (not (= (x22 x90 x123) x84)) (not (= x6 x123)))) (or (not (= x67 x67)) (not (= (x22 x84 x67) x84)))))))
(assert (let ((x35 (x22 x84 x84)) (x109 (x22 x148 x148)) (x61 (x22 x8 x8)) (x99 (x22 x122 x122)) (x131 (x22 x90 x90))) (let ((x18 (= x90 x131)) (x36 (= x122 x99)) (x77 (= x35 x84)) (x38 (= x61 x8)) (x87 (= x109 x148))) (let ((x89 (and (not x77) (and (and (not (= x84 x99)) (and (not (= x109 x84)) (not (= x61 x84)))) (not (= x84 x131))))) (x42 (and (not (= x35 x90)) (and (not x18) (and (and (not (= x61 x90)) (not (= x90 x109))) (not (= x99 x90)))))) (x118 (and (not (= x35 x8)) (and (and (not (= x8 x99)) (and (not x38) (not (= x8 x109)))) (not (= x8 x131))))) (x120 (and (not (= x35 x122)) (and (not (= x131 x122)) (and (not x36) (and (not (= x61 x122)) (not (= x109 x122))))))) (x45 (and (not (= x148 x35)) (and (not (= x131 x148)) (and (and (not (= x148 x61)) (not x87)) (not (= x99 x148))))))) (or (or (or (or (or (and (= (x22 x8 x84) x8) x89) (or (or (or (and x118 x38) (and (= (x22 x8 x148) x8) x45)) (and x120 (= (x22 x8 x122) x8))) (and (= x8 (x22 x8 x90)) x42))) (or (or (and (= x148 (x22 x148 x90)) x42) (or (or (and (= x148 (x22 x148 x8)) x118) (and x45 x87)) (and x120 (= x148 (x22 x148 x122))))) (and (= x148 (x22 x148 x84)) x89))) (or (or (and (= x122 (x22 x122 x90)) x42) (or (or (and x118 (= x122 (x22 x122 x8))) (and (= (x22 x122 x148) x122) x45)) (and x36 x120))) (and x89 (= x122 (x22 x122 x84))))) (or (or (and x42 x18) (or (and x120 (= (x22 x90 x122) x90)) (or (and (= x90 (x22 x90 x148)) x45) (and x118 (= (x22 x90 x8) x90))))) (and x89 (= x90 (x22 x90 x84))))) (or (and x89 x77) (or (and (= x84 (x22 x84 x90)) x42) (or (and (= (x22 x84 x122) x84) x120) (or (and (= (x22 x84 x8) x84) x118) (and x45 (= (x22 x84 x148) x84)))))))))))
(assert (let ((x89 (x22 x122 x148)) (x111 (x22 x90 x122)) (x87 (x22 x148 x122)) (x68 (x22 x90 x148)) (x6 (x22 x90 x84)) (x131 (x22 x8 x84)) (x120 (x22 x148 x84)) (x36 (x22 x122 x122)) (x62 (x22 x84 x8)) (x42 (x22 x122 x8)) (x99 (x22 x8 x90)) (x18 (x22 x122 x90)) (x50 (x22 x90 x90)) (x52 (x22 x84 x148)) (x3 (x22 x90 x8)) (x123 (x22 x84 x90)) (x77 (x22 x122 x84)) (x38 (x22 x8 x8)) (x35 (x22 x148 x8)) (x45 (x22 x148 x90)) (x124 (x22 x84 x122)) (x109 (x22 x8 x122)) (x118 (x22 x148 x148)) (x61 (x22 x8 x148)) (x67 (x22 x84 x84))) (and (and (and (and (and (and (and (and (or (or (or (= x38 x122) (or (= x38 x148) (= x38 x8))) (= x90 x38)) (= x38 x84)) (or (= x61 x84) (or (= x90 x61) (or (= x61 x122) (or (= x61 x8) (= x148 x61)))))) (or (or (or (= x109 x122) (or (= x109 x148) (= x8 x109))) (= x90 x109)) (= x84 x109))) (or (or (or (= x122 x99) (or (= x99 x8) (= x99 x148))) (= x99 x90)) (= x99 x84))) (or (= x131 x84) (or (or (= x122 x131) (or (= x148 x131) (= x8 x131))) (= x131 x90)))) (and (or (= x120 x84) (or (= x90 x120) (or (or (= x120 x148) (= x120 x8)) (= x122 x120)))) (and (and (or (or (= x90 x87) (or (= x122 x87) (or (= x87 x148) (= x8 x87)))) (= x84 x87)) (and (or (= x84 x118) (or (= x90 x118) (or (= x122 x118) (or (= x118 x8) (= x118 x148))))) (or (= x35 x84) (or (= x35 x90) (or (= x35 x122) (or (= x35 x8) (= x148 x35))))))) (or (or (= x90 x45) (or (= x122 x45) (or (= x148 x45) (= x8 x45)))) (= x45 x84))))) (and (or (or (or (= x122 x77) (or (= x8 x77) (= x77 x148))) (= x77 x90)) (= x84 x77)) (and (or (= x18 x84) (or (= x90 x18) (or (= x18 x122) (or (= x148 x18) (= x8 x18))))) (and (or (or (= x90 x36) (or (or (= x36 x148) (= x8 x36)) (= x36 x122))) (= x36 x84)) (and (or (or (or (or (= x89 x148) (= x89 x8)) (= x122 x89)) (= x89 x90)) (= x84 x89)) (or (= x84 x42) (or (or (= x42 x122) (or (= x148 x42) (= x42 x8))) (= x90 x42)))))))) (and (and (and (and (or (or (= x90 x68) (or (= x122 x68) (or (= x68 x8) (= x148 x68)))) (= x68 x84)) (or (or (= x90 x3) (or (= x3 x122) (or (= x3 x8) (= x3 x148)))) (= x84 x3))) (or (= x111 x84) (or (= x111 x90) (or (or (= x111 x148) (= x8 x111)) (= x122 x111))))) (or (= x50 x84) (or (or (or (= x50 x148) (= x50 x8)) (= x122 x50)) (= x50 x90)))) (or (= x6 x84) (or (or (= x122 x6) (or (= x6 x8) (= x148 x6))) (= x90 x6))))) (and (and (and (or (or (or (= x122 x124) (or (= x148 x124) (= x8 x124))) (= x90 x124)) (= x84 x124)) (and (or (or (= x90 x62) (or (= x62 x122) (or (= x62 x8) (= x62 x148)))) (= x84 x62)) (or (or (= x90 x52) (or (or (= x52 x8) (= x148 x52)) (= x122 x52))) (= x84 x52)))) (or (= x123 x84) (or (= x90 x123) (or (= x123 x122) (or (= x148 x123) (= x8 x123)))))) (or (= x67 x84) (or (or (or (= x148 x67) (= x67 x8)) (= x67 x122)) (= x90 x67)))))))
(assert (and (and (= x90 (x22 x148 x122)) (and (= (x22 x148 x90) x8) (= x148 (x22 x122 x122)))) (= (x22 x90 x148) x84)))
(assert (let ((x99 (x22 x90 x90)) (x131 (x22 x84 x84)) (x109 (x22 x122 x122)) (x61 (x22 x148 x148)) (x38 (x22 x8 x8))) (or (and (not (= x84 x131)) (and (not (= x99 x84)) (and (and (not (= x38 x84)) (not (= x84 x61))) (not (= x84 x109))))) (or (or (and (not (= x122 x131)) (and (and (and (not (= x122 x38)) (not (= x61 x122))) (not (= x122 x109))) (not (= x122 x99)))) (or (and (not (= x131 x148)) (and (and (not (= x109 x148)) (and (not (= x61 x148)) (not (= x148 x38)))) (not (= x99 x148)))) (and (and (and (not (= x8 x109)) (and (not (= x8 x38)) (not (= x61 x8)))) (not (= x99 x8))) (not (= x8 x131))))) (and (not (= x90 x131)) (and (not (= x99 x90)) (and (not (= x90 x109)) (and (not (= x38 x90)) (not (= x90 x61))))))))))
(assert (and (not (= x84 x90)) (and (and (and (not (= x148 x84)) (and (not (= x148 x90)) (and (and (not (= x8 x84)) (and (and (not (= x8 x122)) (not (= x148 x8))) (not (= x8 x90)))) (not (= x122 x148))))) (not (= x122 x90))) (not (= x122 x84)))))
(assert (and (or (or (or (or (= (x22 (x22 x84 x148) x84) x148) (= x8 (x22 (x22 x84 x8) x84))) (= (x22 (x22 x84 x122) x84) x122)) (= x90 (x22 (x22 x84 x90) x84))) (= (x22 (x22 x84 x84) x84) x84)) (and (or (= (x22 (x22 x90 x84) x90) x84) (or (or (= (x22 (x22 x90 x122) x90) x122) (or (= x148 (x22 (x22 x90 x148) x90)) (= x8 (x22 (x22 x90 x8) x90)))) (= x90 (x22 (x22 x90 x90) x90)))) (and (and (or (= x84 (x22 (x22 x148 x84) x148)) (or (= x90 (x22 (x22 x148 x90) x148)) (or (= x122 (x22 (x22 x148 x122) x148)) (or (= x8 (x22 (x22 x148 x8) x148)) (= x148 (x22 (x22 x148 x148) x148)))))) (or (or (= (x22 (x22 x8 x90) x8) x90) (or (= x122 (x22 (x22 x8 x122) x8)) (or (= x148 (x22 (x22 x8 x148) x8)) (= (x22 (x22 x8 x8) x8) x8)))) (= (x22 (x22 x8 x84) x8) x84))) (or (or (or (= x122 (x22 (x22 x122 x122) x122)) (or (= (x22 (x22 x122 x148) x122) x148) (= (x22 (x22 x122 x8) x122) x8))) (= (x22 (x22 x122 x90) x122) x90)) (= (x22 (x22 x122 x84) x122) x84))))))
(assert (not (and (= x8 (x22 x84 x84)) (and (= x148 (x22 x84 x90)) (and (and (= x90 (x22 x84 x148)) (and (and (= x90 (x22 x90 x84)) (and (= x122 (x22 x90 x90)) (and (= x8 (x22 x90 x122)) (and (and (and (and (and (= x148 (x22 x122 x122)) (and (= x8 (x22 x122 x148)) (and (= (x22 x122 x8) x90) (and (and (= x8 (x22 x148 x90)) (and (= x90 (x22 x148 x122)) (and (and (= x122 (x22 x148 x8)) (and (= (x22 x8 x84) x148) (and (= (x22 x8 x90) x90) (and (= x84 (x22 x8 x122)) (and (= (x22 x8 x148) x122) (= (x22 x8 x8) x8)))))) (= (x22 x148 x148) x148)))) (= x84 (x22 x148 x84)))))) (= x84 (x22 x122 x90))) (= (x22 x122 x84) x122)) (= (x22 x90 x8) x148)) (= x84 (x22 x90 x148)))))) (= x84 (x22 x84 x8)))) (= x122 (x22 x84 x122)))))))
(assert (let ((x52 (x22 x148 x84)) (x53 (x22 x84 x148)) (x156 (x22 x84 x90)) (x91 (x22 x84 x84)) (x131 (x22 x8 x90)) (x35 (x22 x8 x84)) (x82 (x22 x122 x122)) (x45 (x22 x122 x8)) (x109 (x22 x8 x148)) (x6 (x22 x148 x122)) (x61 (x22 x8 x8)) (x62 (x22 x148 x90)) (x99 (x22 x8 x122)) (x120 (x22 x90 x8)) (x95 (x22 x90 x90)) (x94 (x22 x90 x84)) (x146 (x22 x90 x122)) (x98 (x22 x84 x122)) (x149 (x22 x122 x84)) (x87 (x22 x148 x8)) (x42 (x22 x84 x8)) (x30 (x22 x90 x148)) (x50 (x22 x148 x148)) (x139 (x22 x122 x90)) (x67 (x22 x122 x148))) (let ((x86 (= x90 x50)) (x1 (= x84 x139)) (x14 (= x90 x82)) (x19 (= x84 x109)) (x3 (= x109 x8)) (x121 (= x42 x84)) (x125 (= x52 x122)) (x37 (= x8 x6)) (x27 (= x45 x122)) (x116 (= x30 x8)) (x24 (= x52 x90)) (x129 (= x148 x91)) (x60 (= x8 x94)) (x17 (= x149 x122)) (x142 (= x120 x148)) (x97 (= x90 x6)) (x11 (= x90 x139)) (x106 (= x90 x98)) (x31 (= x84 x95)) (x72 (= x122 x94)) (x75 (= x148 x95)) (x100 (= x148 x82)) (x104 (= x84 x62)) (x48 (= x90 x149)) (x78 (= x6 x148)) (x140 (= x139 x148)) (x130 (= x148 x156)) (x41 (= x148 x52)) (x105 (= x62 x122)) (x123 (= x50 x148)) (x40 (= x131 x8)) (x54 (= x149 x8)) (x23 (= x122 x50)) (x85 (= x62 x90)) (x157 (= x30 x90)) (x56 (= x35 x90)) (x159 (= x67 x84)) (x73 (= x8 x146)) (x107 (= x99 x8)) (x153 (= x148 x98)) (x151 (= x139 x8)) (x132 (= x94 x148)) (x38 (= x8 x61)) (x147 (= x53 x148)) (x133 (= x94 x84)) (x141 (= x35 x148)) (x44 (= x8 x91)) (x5 (= x8 x45)) (x59 (= x90 x67)) (x110 (= x53 x84)) (x137 (= x6 x84)) (x20 (= x148 x149)) (x119 (= x122 x99)) (x2 (= x82 x84)) (x74 (= x122 x146)) (x34 (= x95 x122)) (x13 (= x90 x95)) (x77 (= x87 x8)) (x64 (= x90 x131)) (x155 (= x139 x122)) (x68 (= x50 x8)) (x117 (= x98 x8)) (x81 (= x6 x122)) (x115 (= x42 x148)) (x113 (= x67 x8)) (x58 (= x109 x122)) (x9 (= x8 x95)) (x108 (= x30 x122)) (x89 (= x61 x122)) (x46 (= x52 x84)) (x92 (= x99 x84)) (x88 (= x90 x91)) (x36 (= x90 x61)) (x33 (= x131 x122)) (x70 (= x8 x42)) (x29 (= x120 x90)) (x66 (= x122 x53)) (x28 (= x156 x8)) (x124 (= x148 x109)) (x43 (= x8 x62)) (x79 (= x30 x148)) (x80 (= x90 x146)) (x65 (= x122 x87)) (x25 (= x122 x120)) (x114 (= x53 x90)) (x127 (= x146 x84)) (x18 (= x84 x61)) (x144 (= x8 x53)) (x71 (= x84 x120)) (x32 (= x156 x122)) (x26 (= x84 x149)) (x136 (= x90 x42)) (x51 (= x148 x67)) (x126 (= x122 x35)) (x158 (= x45 x148)) (x128 (= x82 x8)) (x39 (= x35 x84)) (x135 (= x99 x148)) (x49 (= x45 x90)) (x118 (= x148 x61)) (x15 (= x52 x8)) (x93 (= x99 x90)) (x138 (= x84 x87)) (x150 (= x8 x35)) (x143 (= x82 x122)) (x16 (= x84 x30)) (x21 (= x148 x146)) (x12 (= x131 x148)) (x63 (= x156 x90)) (x47 (= x84 x91)) (x102 (= x84 x156)) (x145 (= x91 x122)) (x152 (= x90 x87)) (x69 (= x122 x42)) (x103 (= x122 x98)) (x83 (= x90 x94)) (x111 (= x148 x87)) (x96 (= x67 x122)) (x76 (= x50 x84)) (x7 (= x84 x98)) (x101 (= x45 x84)) (x10 (= x8 x120)) (x134 (= x131 x84)) (x112 (= x62 x148)) (x57 (= x109 x90))) (and (and (and (and (and (and (and (or (or (or x49 (or x152 x36)) x29) x136) (or (or (or x93 (or x57 x36)) x64) x56)) (and (and (or (or x33 (or (or x58 x89) x119)) x126) (or (or x25 (or (or x89 x65) x27)) x69)) (and (and (or x141 (or x12 (or (or x118 x124) x135))) (or (or (or (or x118 x111) x158) x142) x115)) (and (or (or x10 (or x5 (or x77 x38))) x70) (or (or x40 (or (or x3 x38) x107)) x150))))) (and (or (or (or x92 (or x18 x19)) x134) x39) (or (or x71 (or (or x138 x18) x101)) x121))) (and (and (or (or x104 (or x137 (or x76 x138))) x46) (or (or (or (or x19 x76) x159) x16) x110)) (and (and (and (or (or x108 (or (or x23 x58) x96)) x66) (or (or (or (or x23 x65) x81) x105) x125)) (and (and (or (or (or x113 (or x3 x68)) x116) x144) (or (or (or x37 (or x77 x68)) x43) x15)) (and (or x41 (or x112 (or x78 (or x123 x111)))) (or x147 (or (or x51 (or x123 x124)) x79))))) (and (or x24 (or x85 (or (or x152 x86) x97))) (or x114 (or (or (or x86 x57) x59) x157)))))) (and (and (or (or (or x2 (or x137 x92)) x127) x7) (or (or x1 (or (or x159 x101) x2)) x26)) (and (and (and (and (or (or x21 (or (or x135 x78) x100)) x153) (or (or (or x100 (or x158 x51)) x140) x20)) (and (or x117 (or (or (or x107 x37) x128) x73)) (or (or (or (or x113 x5) x128) x151) x54))) (and (or x17 (or (or (or x96 x27) x143) x155)) (or (or x74 (or (or x119 x81) x143)) x103))) (and (or (or (or (or x93 x97) x14) x80) x106) (or (or (or x14 (or x49 x59)) x11) x48))))) (and (and (or (or (or x127 (or x16 x71)) x31) x133) (or x102 (or x31 (or (or x134 x104) x1)))) (and (and (and (or x72 (or x34 (or x74 (or x108 x25)))) (or (or (or x155 (or x33 x105)) x34) x32)) (and (and (or x132 (or x75 (or (or x142 x79) x21))) (or (or x75 (or x140 (or x112 x12))) x130)) (and (or x60 (or x9 (or x73 (or x10 x116)))) (or x28 (or (or x151 (or x40 x43)) x9))))) (and (or (or (or x80 (or x157 x29)) x13) x83) (or x63 (or x13 (or x11 (or x64 x85)))))))) (and (and (or x47 (or (or (or x46 x39) x26) x133)) (or x47 (or x102 (or (or x121 x110) x7)))) (and (and (or (or (or (or x136 x114) x106) x63) x88) (or x88 (or x83 (or (or x56 x24) x48)))) (and (and (or x145 (or (or (or x125 x126) x17) x72)) (or (or (or (or x66 x69) x103) x32) x145)) (and (and (or x44 (or (or (or x150 x15) x54) x60)) (or x44 (or (or x117 (or x144 x70)) x28))) (and (or (or (or (or x41 x141) x20) x132) x129) (or (or x130 (or x153 (or x115 x147))) x129))))))))))
(assert (or (and (and (and (not (= (x22 (x22 x122 x84) x84) x122)) (and (not (= x8 (x22 (x22 x8 x84) x84))) (not (= x148 (x22 (x22 x148 x84) x84))))) (not (= (x22 (x22 x90 x84) x84) x90))) (not (= (x22 (x22 x84 x84) x84) x84))) (or (or (or (and (not (= x84 (x22 (x22 x84 x8) x8))) (and (and (and (not (= x8 (x22 (x22 x8 x8) x8))) (not (= (x22 (x22 x148 x8) x8) x148))) (not (= (x22 (x22 x122 x8) x8) x122))) (not (= (x22 (x22 x90 x8) x8) x90)))) (and (not (= x84 (x22 (x22 x84 x148) x148))) (and (not (= x90 (x22 (x22 x90 x148) x148))) (and (and (not (= (x22 (x22 x8 x148) x148) x8)) (not (= x148 (x22 (x22 x148 x148) x148)))) (not (= x122 (x22 (x22 x122 x148) x148))))))) (and (not (= (x22 (x22 x84 x122) x122) x84)) (and (not (= x90 (x22 (x22 x90 x122) x122))) (and (not (= x122 (x22 (x22 x122 x122) x122))) (and (not (= x8 (x22 (x22 x8 x122) x122))) (not (= x148 (x22 (x22 x148 x122) x122)))))))) (and (and (not (= x90 (x22 (x22 x90 x90) x90))) (and (and (not (= x148 (x22 (x22 x148 x90) x90))) (not (= (x22 (x22 x8 x90) x90) x8))) (not (= x122 (x22 (x22 x122 x90) x90))))) (not (= (x22 (x22 x84 x90) x90) x84))))))
(assert (let ((x87 (x22 x122 x148)) (x38 (x22 x8 x8)) (x18 (x22 x90 x122)) (x67 (x22 x84 x84)) (x52 (x22 x148 x84)) (x120 (x22 x84 x148)) (x6 (x22 x84 x90)) (x35 (x22 x8 x148)) (x118 (x22 x148 x148)) (x68 (x22 x148 x90)) (x77 (x22 x84 x122)) (x89 (x22 x148 x122)) (x131 (x22 x84 x8)) (x62 (x22 x8 x84)) (x61 (x22 x148 x8)) (x111 (x22 x122 x90)) (x50 (x22 x90 x90)) (x42 (x22 x8 x122)) (x3 (x22 x8 x90)) (x124 (x22 x122 x84)) (x123 (x22 x90 x84)) (x109 (x22 x122 x8)) (x99 (x22 x90 x8)) (x36 (x22 x122 x122)) (x45 (x22 x90 x148))) (and (and (and (and (and (and (not (= x120 x67)) (and (not (= x120 x6)) (and (and (and (and (not (= x120 x131)) (not (= x131 x77))) (not (= x131 x6))) (not (= x131 x67))) (not (= x120 x77))))) (not (= x77 x6))) (not (= x67 x77))) (not (= x67 x6))) (and (and (not (= x123 x50)) (and (not (= x18 x123)) (and (and (not (= x123 x45)) (and (not (= x45 x50)) (and (and (and (and (not (= x18 x99)) (not (= x45 x99))) (not (= x99 x50))) (not (= x123 x99))) (not (= x18 x45))))) (not (= x18 x50))))) (and (and (not (= x111 x124)) (and (and (and (not (= x87 x124)) (and (not (= x111 x87)) (and (not (= x36 x87)) (and (and (not (= x109 x111)) (and (not (= x87 x109)) (not (= x109 x36)))) (not (= x124 x109)))))) (not (= x111 x36))) (not (= x36 x124)))) (and (and (not (= x3 x62)) (and (and (not (= x42 x3)) (and (not (= x35 x62)) (and (not (= x3 x35)) (and (not (= x35 x42)) (and (and (not (= x38 x3)) (and (not (= x35 x38)) (not (= x42 x38)))) (not (= x38 x62))))))) (not (= x42 x62)))) (and (not (= x68 x52)) (and (not (= x89 x52)) (and (and (and (not (= x118 x68)) (and (and (and (and (not (= x118 x61)) (not (= x89 x61))) (not (= x61 x68))) (not (= x52 x61))) (not (= x89 x118)))) (not (= x52 x118))) (not (= x89 x68))))))))) (and (and (not (= x123 x67)) (and (not (= x124 x67)) (and (not (= x123 x124)) (and (not (= x52 x67)) (and (and (and (not (= x62 x67)) (and (not (= x62 x123)) (and (not (= x62 x124)) (not (= x62 x52))))) (not (= x124 x52))) (not (= x123 x52))))))) (and (and (and (and (not (= x120 x45)) (and (not (= x87 x120)) (and (not (= x45 x87)) (and (and (not (= x45 x118)) (and (not (= x118 x87)) (and (and (and (not (= x87 x35)) (not (= x35 x118))) (not (= x35 x45))) (not (= x120 x35))))) (not (= x120 x118)))))) (and (not (= x99 x131)) (and (not (= x131 x109)) (and (not (= x99 x109)) (and (not (= x131 x61)) (and (not (= x99 x61)) (and (not (= x61 x109)) (and (not (= x38 x131)) (and (and (not (= x38 x61)) (not (= x109 x38))) (not (= x38 x99))))))))))) (and (and (and (and (not (= x77 x89)) (and (and (and (not (= x42 x77)) (and (not (= x18 x42)) (and (not (= x36 x42)) (not (= x42 x89))))) (not (= x36 x89))) (not (= x18 x89)))) (not (= x36 x18))) (not (= x77 x36))) (not (= x77 x18)))) (and (not (= x50 x6)) (and (and (and (and (not (= x68 x50)) (and (and (not (= x6 x3)) (and (and (not (= x3 x111)) (not (= x68 x3))) (not (= x50 x3)))) (not (= x111 x68)))) (not (= x6 x68))) (not (= x111 x50))) (not (= x6 x111)))))))))
(assert (and (or (or (= (x22 x90 (x22 x84 x90)) x84) (or (or (= (x22 x8 (x22 x84 x8)) x84) (= x84 (x22 x148 (x22 x84 x148)))) (= x84 (x22 x122 (x22 x84 x122))))) (= (x22 x84 (x22 x84 x84)) x84)) (and (and (and (or (or (= x148 (x22 x90 (x22 x148 x90))) (or (or (= x148 (x22 x148 (x22 x148 x148))) (= x148 (x22 x8 (x22 x148 x8)))) (= x148 (x22 x122 (x22 x148 x122))))) (= x148 (x22 x84 (x22 x148 x84)))) (or (or (= (x22 x90 (x22 x8 x90)) x8) (or (or (= (x22 x148 (x22 x8 x148)) x8) (= (x22 x8 (x22 x8 x8)) x8)) (= x8 (x22 x122 (x22 x8 x122))))) (= (x22 x84 (x22 x8 x84)) x8))) (or (or (= (x22 x90 (x22 x122 x90)) x122) (or (= x122 (x22 x122 (x22 x122 x122))) (or (= x122 (x22 x148 (x22 x122 x148))) (= (x22 x8 (x22 x122 x8)) x122)))) (= x122 (x22 x84 (x22 x122 x84))))) (or (= x90 (x22 x84 (x22 x90 x84))) (or (= x90 (x22 x90 (x22 x90 x90))) (or (= (x22 x122 (x22 x90 x122)) x90) (or (= (x22 x8 (x22 x90 x8)) x90) (= (x22 x148 (x22 x90 x148)) x90))))))))
(assert (or (= (x22 x84 x84) x84) (or (= (x22 x90 x90) x90) (or (= (x22 x122 x122) x122) (or (= x148 (x22 x148 x148)) (= (x22 x8 x8) x8))))))
(assert (let ((x118 (x22 x84 x84)) (x35 (x22 x90 x90)) (x131 (x22 x122 x122)) (x99 (x22 x148 x148)) (x109 (x22 x8 x8))) (let ((x38 (= x109 x8)) (x87 (= x148 x99)) (x77 (= x118 x84)) (x42 (= x122 x131)) (x36 (= x35 x90))) (let ((x120 (and (not (= x122 x118)) (and (and (and (not (= x122 x109)) (not (= x99 x122))) (not x42)) (not (= x122 x35))))) (x45 (and (and (and (not (= x148 x131)) (and (not x87) (not (= x148 x109)))) (not (= x148 x35))) (not (= x148 x118)))) (x89 (and (and (not x36) (and (not (= x131 x90)) (and (not (= x90 x109)) (not (= x99 x90))))) (not (= x118 x90)))) (x61 (and (and (and (and (not x38) (not (= x99 x8))) (not (= x131 x8))) (not (= x8 x35))) (not (= x118 x8)))) (x18 (and (not x77) (and (and (and (not (= x109 x84)) (not (= x99 x84))) (not (= x131 x84))) (not (= x84 x35)))))) (or (or (or (and x18 (= (x22 x84 x90) x90)) (or (or (and x18 (= x8 (x22 x84 x8))) (and (= (x22 x84 x148) x148) x18)) (and (= x122 (x22 x84 x122)) x18))) (and x18 x77)) (or (or (or (or (and x61 (= x84 (x22 x8 x84))) (or (and (= (x22 x8 x90) x90) x61) (or (or (and x61 (= (x22 x8 x148) x148)) (and x61 x38)) (and (= (x22 x8 x122) x122) x61)))) (or (and (= (x22 x148 x84) x84) x45) (or (or (and (= (x22 x148 x122) x122) x45) (or (and (= (x22 x148 x8) x8) x45) (and x45 x87))) (and (= x90 (x22 x148 x90)) x45)))) (or (or (and x120 (= (x22 x122 x90) x90)) (or (and x120 x42) (or (and x120 (= (x22 x122 x8) x8)) (and x120 (= x148 (x22 x122 x148)))))) (and x120 (= (x22 x122 x84) x84)))) (or (or (and x89 x36) (or (or (and x89 (= x148 (x22 x90 x148))) (and x89 (= (x22 x90 x8) x8))) (and x89 (= x122 (x22 x90 x122))))) (and (= x84 (x22 x90 x84)) x89))))))))
(assert (let ((x113 (x22 x148 x148)) (x51 (x22 x90 x148)) (x96 (x22 x90 x122)) (x65 (x22 x8 x148)) (x30 (x22 x8 x8)) (x137 (x22 x84 x90)) (x152 (x22 x122 x8)) (x158 (x22 x148 x90)) (x27 (x22 x122 x90)) (x19 (x22 x84 x8)) (x119 (x22 x122 x84)) (x82 (x22 x148 x84)) (x81 (x22 x84 x122)) (x146 (x22 x122 x122)) (x142 (x22 x84 x84)) (x92 (x22 x90 x84)) (x23 (x22 x8 x122)) (x37 (x22 x148 x122)) (x101 (x22 x90 x90)) (x128 (x22 x122 x148)) (x57 (x22 x8 x90)) (x58 (x22 x148 x8)) (x139 (x22 x84 x148)) (x138 (x22 x8 x84)) (x86 (x22 x90 x8))) (let ((x131 (not (= x8 x152))) (x36 (not (= x8 x158))) (x121 (not (= x19 x84))) (x100 (not (= x148 x37))) (x76 (not (= x58 x148))) (x11 (not (= x122 x81))) (x61 (not (= x58 x8))) (x124 (not (= x8 x137))) (x18 (not (= x96 x8))) (x54 (not (= x57 x90))) (x107 (not (= x113 x148))) (x127 (not (= x122 x142))) (x20 (not (= x81 x90))) (x10 (not (= x148 x138))) (x62 (not (= x81 x8))) (x14 (not (= x27 x148))) (x143 (not (= x148 x86))) (x52 (not (= x119 x8))) (x156 (not (= x37 x122))) (x53 (not (= x148 x30))) (x80 (not (= x122 x138))) (x155 (not (= x122 x96))) (x144 (not (= x23 x90))) (x31 (not (= x113 x90))) (x26 (not (= x137 x84))) (x89 (not (= x51 x8))) (x159 (not (= x148 x101))) (x112 (not (= x152 x122))) (x25 (not (= x146 x122))) (x115 (not (= x96 x90))) (x103 (not (= x30 x84))) (x87 (not (= x37 x8))) (x38 (not (= x30 x8))) (x68 (not (= x8 x19))) (x33 (not (= x51 x122))) (x85 (not (= x122 x82))) (x13 (not (= x122 x119))) (x97 (not (= x148 x96))) (x21 (not (= x30 x122))) (x125 (not (= x113 x84))) (x95 (not (= x58 x122))) (x134 (not (= x30 x90))) (x42 (not (= x8 x57))) (x74 (not (= x57 x122))) (x141 (not (= x90 x139))) (x106 (not (= x86 x84))) (x45 (not (= x146 x8))) (x41 (not (= x90 x82))) (x116 (not (= x139 x148))) (x79 (not (= x142 x148))) (x94 (not (= x122 x65))) (x69 (not (= x92 x90))) (x110 (not (= x138 x84))) (x28 (not (= x37 x90))) (x67 (not (= x8 x142))) (x16 (not (= x92 x122))) (x72 (not (= x23 x84))) (x29 (not (= x122 x101))) (x59 (not (= x51 x148))) (x75 (not (= x122 x128))) (x2 (not (= x148 x19))) (x93 (not (= x148 x158))) (x117 (not (= x90 x128))) (x32 (not (= x84 x58))) (x157 (not (= x122 x19))) (x78 (not (= x128 x148))) (x50 (not (= x8 x139))) (x63 (not (= x57 x84))) (x3 (not (= x8 x101))) (x12 (not (= x122 x113))) (x102 (not (= x84 x82))) (x150 (not (= x90 x146))) (x136 (not (= x84 x37))) (x145 (not (= x128 x84))) (x56 (not (= x51 x84))) (x47 (not (= x84 x142))) (x126 (not (= x84 x65))) (x66 (not (= x90 x142))) (x35 (not (= x23 x8))) (x129 (not (= x90 x137))) (x15 (not (= x86 x90))) (x147 (not (= x90 x27))) (x7 (not (= x139 x84))) (x71 (not (= x137 x122))) (x17 (not (= x84 x152))) (x130 (not (= x19 x90))) (x43 (not (= x148 x119))) (x44 (not (= x158 x90))) (x46 (not (= x119 x84))) (x98 (not (= x148 x146))) (x1 (not (= x90 x65))) (x73 (not (= x148 x82))) (x111 (not (= x8 x138))) (x140 (not (= x23 x122))) (x64 (not (= x122 x139))) (x135 (not (= x23 x148))) (x49 (not (= x57 x148))) (x153 (not (= x101 x90))) (x39 (not (= x84 x81))) (x77 (not (= x27 x8))) (x151 (not (= x137 x148))) (x34 (not (= x122 x27))) (x149 (not (= x152 x148))) (x108 (not (= x122 x86))) (x48 (not (= x96 x84))) (x91 (not (= x138 x90))) (x120 (not (= x8 x86))) (x123 (not (= x8 x92))) (x60 (not (= x90 x51))) (x114 (not (= x84 x146))) (x40 (not (= x148 x81))) (x24 (not (= x158 x84))) (x6 (not (= x8 x82))) (x5 (not (= x148 x65))) (x105 (not (= x158 x122))) (x109 (not (= x8 x65))) (x132 (not (= x119 x90))) (x9 (not (= x148 x92))) (x118 (not (= x8 x128))) (x99 (not (= x8 x113))) (x88 (not (= x84 x101))) (x133 (not (= x92 x84))) (x70 (not (= x90 x152))) (x83 (not (= x27 x84))) (x104 (not (= x90 x58)))) (or (and (and (and (or x26 x133) (and (or x39 x46) (and (or x121 x110) (or x102 x7)))) (or x47 x47)) (and (and (and (and (or x83 x48) (and (and (or x17 x72) (or x145 x136)) (or x114 x114))) (or x39 x46)) (and (and (or x121 x110) (and (and (and (or x103 x103) (or x126 x32)) (or x17 x72)) (or x106 x63))) (and (or x102 x7) (and (or x24 x56) (and (and (or x32 x126) (or x125 x125)) (or x136 x145)))))) (and (or x26 x133) (and (or x88 x88) (and (and (or x24 x56) (or x63 x106)) (or x48 x83)))))) (or (or (or (and (and (and (or x123 x124) (and (and (or x18 x77) (and (or x89 x36) (or x42 x120))) (or x3 x3))) (and (and (and (or x111 x68) (and (and (and (or x38 x38) (or x61 x109)) (or x131 x35)) (or x120 x42))) (and (and (and (or x118 x87) (and (or x99 x99) (or x109 x61))) (or x36 x89)) (or x50 x6))) (and (and (or x18 x77) (and (and (or x118 x87) (or x131 x35)) (or x45 x45))) (or x52 x62)))) (and (or x67 x67) (and (and (or x52 x62) (and (or x68 x111) (or x50 x6))) (or x123 x124)))) (and (and (and (and (and (and (or x143 x49) (and (and (or x53 x53) (or x76 x5)) (or x135 x149))) (or x10 x2)) (and (and (and (and (or x107 x107) (or x5 x76)) (or x78 x100)) (or x93 x59)) (or x116 x73))) (and (or x40 x43) (and (and (or x98 x98) (and (or x149 x135) (or x78 x100))) (or x97 x14)))) (and (or x9 x151) (and (and (or x97 x14) (and (or x93 x59) (or x143 x49))) (or x159 x159)))) (and (or x79 x79) (and (and (or x40 x43) (and (or x116 x73) (or x2 x10))) (or x9 x151))))) (and (and (and (or x71 x16) (and (or x13 x11) (and (or x80 x157) (or x64 x85)))) (or x127 x127)) (and (and (and (or x13 x11) (and (and (and (or x156 x75) (or x112 x140)) (or x25 x25)) (or x34 x155))) (and (and (or x157 x80) (and (and (or x140 x112) (and (or x95 x94) (or x21 x21))) (or x74 x108))) (and (or x85 x64) (and (or x105 x33) (and (and (or x12 x12) (or x95 x94)) (or x156 x75)))))) (and (or x71 x16) (and (and (and (or x74 x108) (or x105 x33)) (or x155 x34)) (or x29 x29)))))) (and (and (and (or x129 x69) (and (or x153 x153) (and (or x147 x115) (and (or x44 x60) (or x54 x15))))) (and (and (and (and (or x60 x44) (and (and (or x104 x1) (or x31 x31)) (or x28 x117))) (or x41 x141)) (and (and (or x15 x54) (and (and (or x1 x104) (or x134 x134)) (or x70 x144))) (or x130 x91))) (and (or x20 x132) (and (or x115 x147) (and (or x150 x150) (and (or x144 x70) (or x117 x28))))))) (and (and (and (or x132 x20) (and (or x41 x141) (or x91 x130))) (or x69 x129)) (or x66 x66))))))))
(assert (or (and (not (= x84 (x22 x84 (x22 x84 x84)))) (and (not (= x90 (x22 x84 (x22 x84 x90)))) (and (and (not (= (x22 x84 (x22 x84 x8)) x8)) (not (= (x22 x84 (x22 x84 x148)) x148))) (not (= (x22 x84 (x22 x84 x122)) x122))))) (or (or (and (and (and (not (= x122 (x22 x122 (x22 x122 x122)))) (and (not (= x8 (x22 x122 (x22 x122 x8)))) (not (= x148 (x22 x122 (x22 x122 x148)))))) (not (= (x22 x122 (x22 x122 x90)) x90))) (not (= (x22 x122 (x22 x122 x84)) x84))) (or (and (not (= x84 (x22 x8 (x22 x8 x84)))) (and (not (= (x22 x8 (x22 x8 x90)) x90)) (and (and (not (= (x22 x8 (x22 x8 x148)) x148)) (not (= (x22 x8 (x22 x8 x8)) x8))) (not (= x122 (x22 x8 (x22 x8 x122))))))) (and (and (not (= (x22 x148 (x22 x148 x90)) x90)) (and (not (= x122 (x22 x148 (x22 x148 x122)))) (and (not (= x148 (x22 x148 (x22 x148 x148)))) (not (= x8 (x22 x148 (x22 x148 x8))))))) (not (= (x22 x148 (x22 x148 x84)) x84))))) (and (not (= (x22 x90 (x22 x90 x84)) x84)) (and (and (and (not (= x8 (x22 x90 (x22 x90 x8)))) (not (= (x22 x90 (x22 x90 x148)) x148))) (not (= x122 (x22 x90 (x22 x90 x122))))) (not (= (x22 x90 (x22 x90 x90)) x90)))))))
(check-sat)
(exit)
